solving instance mcnd arcs c25_100_30_V_T_5 3 6 exp
Couenne 0.5.8 -- an Open-Source solver for Mixed Integer Nonlinear Optimization
Mailing list: couenne@list.coin-or.org
Instructions: http://www.coin-or.org/Couenne
couenne: 
ANALYSIS TEST: Reformulating problem: 3.7 seconds
NLP0012I 
              Num      Status      Obj             It       time                 Location
NLP0014I             1        TIME 0     1705 1810.414
Loaded instance "/tmp/jl_VCEHOp/model.nl"
Constraints:         4200
Variables:           3350 (125 integer)
Auxiliaries:         1527 (3 integer)

Coin0506I Presolve 5305 (-380) rows, 3458 (-1419) columns and 24008 (-1928) elements
Clp0006I 0  Obj 387832.88 Primal inf 11906.682 (1008)
Clp0006I 181  Obj 387832.88 Primal inf 56458.396 (935)
Clp0006I 362  Obj 387832.88 Primal inf 3131738.7 (904)
Clp0006I 543  Obj 394824.24 Primal inf 5619502.4 (1090)
Clp0006I 724  Obj 401039.45 Primal inf 202221.52 (1198)
Clp0006I 905  Obj 417140.35 Primal inf 97114.71 (1251)
Clp0006I 1086  Obj 434462.12 Primal inf 175858.05 (1330)
Clp0006I 1267  Obj 462301.89 Primal inf 198803.26 (1449)
Clp0006I 1448  Obj 478896.5 Primal inf 59150.901 (1363)
Clp0006I 1629  Obj 526592.58 Primal inf 75122.278 (1456)
Clp0006I 1810  Obj 542066.38 Primal inf 686300.34 (1381)
Clp0006I 1991  Obj 557481.3 Primal inf 68960.494 (1459)
Clp0006I 2156  Obj 569823.54 Primal inf 65554.37 (1369)
Clp0006I 2337  Obj 583549.98 Primal inf 79828.123 (1197)
Clp0006I 2518  Obj 597162.2 Primal inf 65230.001 (1270)
Clp0006I 2680  Obj 619041.28 Primal inf 4711501.4 (1520)
Clp0006I 2843  Obj 638085.98 Primal inf 165371.29 (1368)
Clp0006I 2997  Obj 657524.83 Primal inf 209969.51 (1439)
Clp0006I 3156  Obj 680311.36 Primal inf 104435.18 (1374)
Clp0006I 3312  Obj 699073.12 Primal inf 204057.17 (1521)
Clp0006I 3484  Obj 716082.31 Primal inf 192929.64 (1569)
Clp0006I 3650  Obj 732353.11 Primal inf 198914.8 (1606)
Clp0006I 3817  Obj 749221.47 Primal inf 485113.44 (1802)
Clp0006I 3998  Obj 761198.82 Primal inf 114213.47 (1443)
Clp0006I 4160  Obj 778601.78 Primal inf 135468.14 (1382)
Clp0006I 4318  Obj 788712.42 Primal inf 60448.051 (1082)
Clp0006I 4463  Obj 797115.52 Primal inf 138230.9 (1376)
Clp0006I 4612  Obj 804712.23 Primal inf 117046.3 (1178)
Clp0006I 4767  Obj 814809.48 Primal inf 17875.411 (983)
Clp0006I 4932  Obj 821326.1 Primal inf 35684.748 (1067)
Clp0006I 5074  Obj 825303.52 Primal inf 46066.171 (871)
Clp0006I 5231  Obj 828457.78 Primal inf 683.16638 (197)
Clp0006I 5388  Obj 835115.55 Primal inf 84.440646 (97)
Clp0006I 5452  Obj 835470.42
Clp0000I Optimal - objective value 835470.42
Clp0032I Optimal objective 835470.4213 - 5452 iterations time 2.502, Presolve 0.02
Clp0000I Optimal - objective value 835470.42
NLP Heuristic: NLP0014I             2      INFEAS 36      180 18.884248
no solution.
Clp0000I Optimal - objective value 835470.42
Optimality Based BT: 0 improved bounds
Probing: 1 improved bounds
NLP Heuristic: time limit reached.
Cbc0031I 134 added rows had average density of 2
Cbc0013I At root node, 134 cuts changed objective from 835470.42 to 874855.71 in 20 passes
Cbc0014I Cut generator 0 (Couenne convexifier cuts) - 941 row cuts average 2.0 elements, 1 column cuts (1 active)
Cbc0010I After 0 nodes, 1 on tree, 1e+50 best solution, best possible -1.7976931e+308 (206.15 seconds)
Optimality Based BT: 0 improved bounds
Optimality Based BT: 0 improved bounds
Optimality Based BT: 0 improved bounds
Cbc0020I Exiting on maximum time
Cbc0005I Partial search - best objective 1e+50 (best possible -1.7976931e+308), took 8575 iterations and 7 nodes (1783.02 seconds)
Cbc0035I Maximum depth 3, 0 variables fixed on reduced cost

 	"Not finished"

Linearization cuts added at root node:       5685
Linearization cuts added in total:           5685  (separation time: 0.061685s)
Total solve time:                         1785.53s (1785.53s in branch-and-bound)
Lower bound:                                 -inf
Upper bound:                                  inf  (gap: --)
Branch-and-bound nodes:                         7
Stats: /tmp/jl_VCEHOp/model.nl 3350 [var]  125 [int] 4200 [con] 1527 [aux]   5685 [root]     5685 [tot] 0.061685 [sep]  1785.53 [time]  1785.54 [bb]       -1.797693e+308 [lower]         1.000000e+50 [upper]       7 [nodes]
Performance of                           FBBT:	    1.18138s,       47 runs. fix:   0.318367 shrnk:    2.70353 ubd:          0 2ubd:         29 infeas:          0
Performance of                           OBBT:	     71.607s,        4 runs. fix:          0 shrnk:          0 ubd:          0 2ubd:         29 infeas:          0
ERROR: LoadError: MathOptInterface.GetAttributeNotAllowed{MathOptInterface.ObjectiveBound}: Getting attribute MathOptInterface.ObjectiveBound() cannot be performed: AmplNLWriter.Optimizer does not support getting the attribute MathOptInterface.ObjectiveBound(). You may want to use a `CachingOptimizer` in `AUTOMATIC` mode or you may need to call `reset_optimizer` before doing this operation if the `CachingOptimizer` is in `MANUAL` mode.
Stacktrace:
  [1] get_fallback(model::AmplNLWriter.Optimizer, attr::MathOptInterface.ObjectiveBound)
    @ MathOptInterface ~/.julia/packages/MathOptInterface/gLl4d/src/attributes.jl:409
  [2] get(::AmplNLWriter.Optimizer, ::MathOptInterface.ObjectiveBound)
    @ MathOptInterface ~/.julia/packages/MathOptInterface/gLl4d/src/attributes.jl:390
  [3] _get_model_attribute(model::MathOptInterface.Utilities.CachingOptimizer{AmplNLWriter.Optimizer, MathOptInterface.Utilities.UniversalFallback{MathOptInterface.Utilities.Model{Float64}}}, attr::MathOptInterface.ObjectiveBound)
    @ MathOptInterface.Utilities ~/.julia/packages/MathOptInterface/gLl4d/src/Utilities/cachingoptimizer.jl:865
  [4] get(model::MathOptInterface.Utilities.CachingOptimizer{AmplNLWriter.Optimizer, MathOptInterface.Utilities.UniversalFallback{MathOptInterface.Utilities.Model{Float64}}}, attr::MathOptInterface.ObjectiveBound)
    @ MathOptInterface.Utilities ~/.julia/packages/MathOptInterface/gLl4d/src/Utilities/cachingoptimizer.jl:900
  [5] get(b::MathOptInterface.Bridges.LazyBridgeOptimizer{MathOptInterface.Utilities.CachingOptimizer{AmplNLWriter.Optimizer, MathOptInterface.Utilities.UniversalFallback{MathOptInterface.Utilities.Model{Float64}}}}, attr::MathOptInterface.ObjectiveBound)
    @ MathOptInterface.Bridges ~/.julia/packages/MathOptInterface/gLl4d/src/Bridges/bridge_optimizer.jl:889
  [6] _get_model_attribute(model::MathOptInterface.Utilities.CachingOptimizer{MathOptInterface.Bridges.LazyBridgeOptimizer{MathOptInterface.Utilities.CachingOptimizer{AmplNLWriter.Optimizer, MathOptInterface.Utilities.UniversalFallback{MathOptInterface.Utilities.Model{Float64}}}}, MathOptInterface.Utilities.UniversalFallback{MathOptInterface.Utilities.Model{Float64}}}, attr::MathOptInterface.ObjectiveBound)
    @ MathOptInterface.Utilities ~/.julia/packages/MathOptInterface/gLl4d/src/Utilities/cachingoptimizer.jl:865
  [7] get(model::MathOptInterface.Utilities.CachingOptimizer{MathOptInterface.Bridges.LazyBridgeOptimizer{MathOptInterface.Utilities.CachingOptimizer{AmplNLWriter.Optimizer, MathOptInterface.Utilities.UniversalFallback{MathOptInterface.Utilities.Model{Float64}}}}, MathOptInterface.Utilities.UniversalFallback{MathOptInterface.Utilities.Model{Float64}}}, attr::MathOptInterface.ObjectiveBound)
    @ MathOptInterface.Utilities ~/.julia/packages/MathOptInterface/gLl4d/src/Utilities/cachingoptimizer.jl:900
  [8] _moi_get_result(model::MathOptInterface.Utilities.CachingOptimizer{MathOptInterface.Bridges.LazyBridgeOptimizer{MathOptInterface.Utilities.CachingOptimizer{AmplNLWriter.Optimizer, MathOptInterface.Utilities.UniversalFallback{MathOptInterface.Utilities.Model{Float64}}}}, MathOptInterface.Utilities.UniversalFallback{MathOptInterface.Utilities.Model{Float64}}}, args::MathOptInterface.ObjectiveBound)
    @ JuMP ~/.julia/packages/JuMP/i68GU/src/optimizer_interface.jl:1053
  [9] get(model::JuMP.Model, attr::MathOptInterface.ObjectiveBound)
    @ JuMP ~/.julia/packages/JuMP/i68GU/src/optimizer_interface.jl:1073
 [10] objective_bound(model::JuMP.Model)
    @ JuMP ~/.julia/packages/JuMP/i68GU/src/objective.jl:78
 [11] nl_mcnd(ptype::String, graph::String, commodities::String, nodes::String, incr::Int64, cost::Symbol, solver::AmplNLWriter.Optimizer, solver_params::Vector{Any}; solve::Bool, write_nl::Bool)
    @ IterativePWLB ~/git/ipwlb/code/sources/IterativePWLB/src/nlsolver.jl:1192
 [12] top-level scope
    @ ~/git/ipwlb/code/sources/IterativePWLB/test/couenne/mcnd_arcs/script.jl:18
in expression starting at /home/ccontard/git/ipwlb/code/sources/IterativePWLB/test/couenne/mcnd_arcs/script.jl:18
